
Gurobi 12.0.2 (mac64[arm]) logging started Mon Jun 16 00:35:38 2025

Set parameter LogFile to value "/Users/yurunfeng/Documents/GitHub/LRGTS-store-location/result/gurobi/snyder/88nodes/88-0.95-4.log"
Gurobi Optimizer version 12.0.2 build v12.0.2rc0 (mac64[arm] - Darwin 24.5.0 24F74)

CPU model: Apple M4
Thread count: 10 physical cores, 10 logical processors, using up to 10 threads

Non-default parameters:
TimeLimit  1200

Optimize a model with 15928 rows, 31416 columns and 415534 nonzeros
Model fingerprint: 0x1c3d9e85
Variable types: 0 continuous, 31416 integer (31416 binary)
Coefficient statistics:
  Matrix range     [1e+00, 1e+00]
  Objective range  [1e-02, 7e+06]
  Bounds range     [1e+00, 1e+00]
  RHS range        [1e+00, 1e+00]
Found heuristic solution: objective 4.484057e+07
Presolve removed 176 rows and 7832 columns
Presolve time: 0.40s
Presolved: 15752 rows, 23584 columns, 399518 nonzeros
Variable types: 0 continuous, 23584 integer (23584 binary)
Deterministic concurrent LP optimizer: primal and dual simplex
Showing primal log only...

Concurrent spin time: 0.00s

Solved with dual simplex

Root relaxation: objective 1.432007e+06, 3885 iterations, 0.06 seconds (0.17 work units)

    Nodes    |    Current Node    |     Objective Bounds      |     Work
 Expl Unexpl |  Obj  Depth IntInf | Incumbent    BestBd   Gap | It/Node Time

*    0     0               0    1432007.2724 1432007.27  0.00%     -    0s

Explored 1 nodes (3885 simplex iterations) in 0.52 seconds (1.76 work units)
Thread count was 10 (of 10 available processors)

Solution count 2: 1.43201e+06 4.48406e+07 

Optimal solution found (tolerance 1.00e-04)
Best objective 1.432007272435e+06, best bound 1.432007272435e+06, gap 0.0000%
